NAME : mtspf.pid4699.gtsp.133617828.tour
COMMENT : Length = 133617828
COMMENT : Found by LKH [Keld Helsgaun] Wed Jan 15 10:36:55 2025
TYPE : TOUR
DIMENSION : 85
TOUR_SECTION
1
57
54
55
56
60
61
58
59
17
14
15
16
85
82
83
84
5
22
23
24
25
29
26
27
28
48
49
46
47
4
11
12
13
10
70
71
72
73
43
44
45
42
2
65
62
63
64
76
77
74
75
67
68
69
66
38
39
40
41
18
19
20
21
33
30
31
32
9
6
7
8
50
51
52
53
3
34
35
36
37
80
81
78
79
-1
EOF
